17425
1 1 0 0 1 1 0 1 1 1 1 0 0 1 1 0 1 1 1 0 0 1 1 0 1 1 0 1 1 0
21 28 8 16 5 8 13 18 21 1 8 13 24 14 5 14 13 18 21 5 21 16 27 7 5 10 27 8 5 25 4 13 10 9 4 21 28 27 7 8 4 21 22 18 4 10 0 16 5 13 22 13 8 7 13 21 28 8 17 25 22 13 8 7 9 4 13 22 9 4 8 22 18 21 1 22 7 16 5 13 4 13 10 10 4 17 10 24 7 5 4 13 8 9 4 8 27 18 21 5 4 13 17 10 4 22 27 8 25 5 22 27 8 5 13 10 8 8 7 5 27 0 18 5 13 10 28 8 7 25 10 13 16 7 7 21 18 9 25 25 8 13 18 18 4 24 0 8 5 25